p cnf 74 109
-1 24 32 45 61 67 0 
-2 43 -3 6 13 37 39 46 67 0 
-4 56 67 0 
-2 43 -5 -6 3 13 37 39 46 68 0 
-4 56 68 0 
-7 38 41 48 50 60 68 0 
-8 67 0 
-9 68 0 
-9 69 0 
-10 69 0 
-5 -3 6 13 37 39 46 68 0 
-11 17 67 0 
-11 17 68 0 
-12 -13 3 6 37 39 46 68 0 
-4 56 -14 18 40 53 55 59 67 0 
-12 -15 -6 3 13 37 39 46 68 0 
-13 3 6 37 39 46 68 0 
-16 67 0 
-13 3 6 37 39 46 67 0 
-17 11 -7 38 41 48 50 60 68 0 
-5 -4 56 -6 3 13 37 39 46 68 0 
-17 11 -7 38 41 48 50 60 67 0 
-6 3 13 37 39 46 68 0 
-4 56 -18 14 40 53 55 59 68 0 
-19 -2 43 -6 3 13 37 39 46 67 0 
-20 23 -4 56 67 0 
-4 56 -6 3 13 37 39 46 68 0 
-5 -3 6 13 37 39 46 67 0 
-15 -6 3 13 37 39 46 67 0 
-21 68 0 
-22 67 0 
-23 20 68 0 
-1 24 32 45 61 68 0 
-7 38 41 48 50 60 67 0 
-24 1 32 45 61 -25 -26 70 0 
-9 -21 -27 71 0 
-28 71 0 
-9 -28 71 0 
-25 -29 -30 70 0 
-9 -27 71 0 
-27 71 0 
-19 69 0 
-31 -32 1 24 45 61 -33 64 72 0 
-34 -27 71 0 
-26 70 0 
-21 69 0 
-35 69 0 
-36 69 0 
-37 3 6 13 39 46 68 0 
-38 7 41 48 50 60 67 0 
-2 43 -3 6 13 37 39 46 68 0 
-16 68 0 
-17 11 -1 24 32 45 61 67 0 
-6 3 13 37 39 46 67 0 
-4 56 -14 18 40 53 55 59 68 0 
-39 3 6 13 37 46 -40 14 18 53 55 59 -41 7 38 48 50 60 71 0 
-42 -43 2 71 0 
-44 67 0 
-10 -44 68 0 
-9 -44 67 0 
-45 1 24 32 61 68 0 
-46 3 6 13 37 39 68 0 
-32 1 24 45 61 67 0 
-47 67 0 
-47 68 0 
-23 20 67 0 
-2 43 -17 11 -6 3 13 37 39 46 67 0 
-26 -25 70 0 
-48 7 38 41 50 60 -49 -26 70 0 
-19 -34 -28 -3 6 13 37 39 46 -48 7 38 41 50 60 71 0 
-46 3 6 13 37 39 67 0 
-50 7 38 41 48 60 68 0 
-51 67 0 
-52 67 0 
-10 -44 67 0 
-53 14 18 40 55 59 68 0 
-12 -6 3 13 37 39 46 68 0 
-29 -54 70 0 
-19 -17 11 -27 71 0 
-30 -29 70 0 
-19 -28 -24 1 32 45 61 -55 14 18 40 53 59 -56 4 71 0 
-28 -17 11 -48 7 38 41 50 60 71 0 
-57 58 73 0 
-58 57 -59 14 18 40 53 55 -60 7 38 41 48 50 -61 1 24 32 45 -56 4 73 0 
-28 -48 7 38 41 50 60 71 0 
-46 3 6 13 37 39 74 0 
-25 -30 70 0 
-19 -43 2 -28 71 0 
-4 56 -6 3 13 37 39 46 67 0 
-5 -15 -53 14 18 40 55 59 68 0 
-15 -14 18 40 53 55 59 67 0 
-15 -6 3 13 37 39 46 68 0 
-12 -17 11 -6 3 13 37 39 46 68 0 
-19 -6 3 13 37 39 46 67 0 
-1 24 32 45 61 -62 68 0 
-63 67 0 
-4 56 -13 3 6 37 39 46 67 0 
-19 -13 3 6 37 39 46 67 0 
-37 3 6 13 39 46 67 0 
-17 11 -1 24 32 45 61 68 0 
-9 -14 18 40 53 55 59 68 0 
-9 -2 43 -53 14 18 40 55 59 67 0 
-28 67 0 
-64 33 -32 1 24 45 61 -65 -11 17 72 0 
-12 69 0 
-17 11 68 0 
-5 67 0 
-66 -44 68 0 
-66 -44 67 0 
